NAME: PointSet_Angle_30_10
TYPE: TSP
COMMENT: Points chosen discrete uniformly at random out of ${0, \ldots, 500}^2$.
DIMENSION: 30
EDGE_WEIGHT_TYPE: EUC_2D
NODE_COORD_SECTION
1 175 37
2 455 143
3 372 442
4 70 395
5 486 7
6 111 9
7 474 371
8 330 329
9 361 256
10 54 452
11 73 301
12 183 216
13 304 341
14 310 186
15 280 286
16 212 202
17 323 166
18 345 441
19 107 415
20 335 340
21 168 193
22 349 388
23 310 178
24 216 418
25 181 17
26 369 254
27 318 298
28 216 121
29 138 25
30 53 164
EOF
